
  12    4
  10   10   10   10

   0   0   0   0   0   5 2 3 4 5 7 
   1  10  10  10  10   3 11 10 6 
   2  10  10  10  10   3 11 10 6 
   3  10  10  10  10   2 11 6 
   6  10  10  10  10   2 10 8 
   3  10  10  10  10   1 8 
   3  10  10  10  10   1 8 
   5  10  10  10  10   1 9 
   4  10  10  10  10   1 12
  10  10  10  10  10   1 12
   4  10  10  10  10   1 12
   0   0   0   0   0   0 
